NAME : XML100_3136_07
DIMENSION : 101
NB_CLUSTERS : 3
CLUSTERING_ALG : DBSCAN
CLUSTERING_PARAMS : eps(117), minSamples(3)
CLUSTERS
1 0
2 2 12 13 23 33 34 46 47 49 59 61 65 66 69 71 74 79 82 87 94 97 99 100
3 1 3 4 5 6 7 8 9 10 11 14 15 16 17 18 19 20 21 22 24 25 26 27 28 29 30 31 32 35 36 37 38 39 40 41 42 43 44 45 48 50 51 52 53 54 55 56 57 58 60 62 63 64 67 68 70 72 73 75 76 77 78 80 81 83 84 85 86 88 89 90 91 92 93 95 96 98
EOF